min: 28.3*X_0_0 + 16.9*X_0_1 + 19.3*X_0_2 + 18.6*X_0_3 + 21.7*X_0_4 + 18.1*X_0_5 + 12.9*X_0_6 + 22.5*X_0_7 + 22.6*X_0_8 + 17.6*X_0_9 + 18.8*X_0_10 + 18.3*X_0_11 + 19.9*X_0_12 + 14.1*X_0_13 + 20.7*X_0_14 + 17.2*X_0_15 + 14.8*X_0_16 + 19.3*X_0_17 + 16.5*X_0_18 + 21.9*X_0_19 + 21.2*X_1_0 + 17.9*X_1_1 + 22.2*X_1_2 + 23.5*X_1_3 + 17.0*X_1_4 + 22.9*X_1_5 + 14.4*X_1_6 + 29.2*X_1_7 + 15.3*X_1_8 + 22.1*X_1_9 + 16.0*X_1_10 + 19.2*X_1_11 + 22.0*X_1_12 + 21.7*X_1_13 + 20.2*X_1_14 + 21.7*X_1_15 + 17.2*X_1_16 + 23.3*X_1_17 + 26.8*X_1_18 + 19.2*X_1_19 + 26.9*X_2_0 + 14.4*X_2_1 + 19.9*X_2_2 + 15.8*X_2_3 + 21.9*X_2_4 + 17.6*X_2_5 + 25.5*X_2_6 + 23.4*X_2_7 + 25.5*X_2_8 + 18.1*X_2_9 + 23.4*X_2_10 + 28.9*X_2_11 + 16.1*X_2_12 + 20.8*X_2_13 + 26.2*X_2_14 + 10.9*X_2_15 + 19.8*X_2_16 + 30.4*X_2_17 + 16.7*X_2_18 + 24.1*X_2_19 + 18.7*X_3_0 + 19.2*X_3_1 + 20.1*X_3_2 + 12.2*X_3_3 + 17.7*X_3_4 + 24.5*X_3_5 + 24.8*X_3_6 + 23.6*X_3_7 + 15.6*X_3_8 + 22.0*X_3_9 + 23.6*X_3_10 + 21.8*X_3_11 + 28.5*X_3_12 + 21.7*X_3_13 + 22.2*X_3_14 + 20.9*X_3_15 + 23.8*X_3_16 + 19.5*X_3_17 + 19.6*X_3_18 + 30.0*X_3_19 + 25.4*X_4_0 + 20.8*X_4_1 + 29.3*X_4_2 + 24.9*X_4_3 + 21.0*X_4_4 + 16.7*X_4_5 + 23.0*X_4_6 + 21.2*X_4_7 + 20.0*X_4_8 + 23.6*X_4_9 + 15.1*X_4_10 + 16.7*X_4_11 + 12.9*X_4_12 + 27.8*X_4_13 + 26.4*X_4_14 + 18.9*X_4_15 + 26.4*X_4_16 + 20.3*X_4_17 + 19.3*X_4_18 + 16.3*X_4_19 + 27.1*X_5_0 + 22.8*X_5_1 + 17.9*X_5_2 + 22.9*X_5_3 + 18.6*X_5_4 + 19.7*X_5_5 + 15.5*X_5_6 + 20.0*X_5_7 + 19.2*X_5_8 + 21.5*X_5_9 + 24.4*X_5_10 + 17.0*X_5_11 + 22.0*X_5_12 + 23.8*X_5_13 + 19.7*X_5_14 + 19.3*X_5_15 + 18.7*X_5_16 + 21.8*X_5_17 + 19.1*X_5_18 + 21.4*X_5_19 + 18.9*X_6_0 + 22.9*X_6_1 + 17.3*X_6_2 + 24.2*X_6_3 + 14.2*X_6_4 + 13.5*X_6_5 + 23.9*X_6_6 + 21.4*X_6_7 + 23.6*X_6_8 + 25.3*X_6_9 + 22.5*X_6_10 + 14.9*X_6_11 + 22.3*X_6_12 + 19.8*X_6_13 + 12.9*X_6_14 + 10.4*X_6_15 + 18.0*X_6_16 + 17.1*X_6_17 + 21.4*X_6_18 + 14.8*X_6_19 + 18.1*X_7_0 + 29.8*X_7_1 + 21.9*X_7_2 + 24.9*X_7_3 + 26.9*X_7_4 + 25.6*X_7_5 + 16.1*X_7_6 + 14.6*X_7_7 + 23.4*X_7_8 + 19.0*X_7_9 + 24.8*X_7_10 + 21.2*X_7_11 + 20.1*X_7_12 + 18.7*X_7_13 + 28.5*X_7_14 + 15.8*X_7_15 + 29.8*X_7_16 + 18.3*X_7_17 + 12.3*X_7_18 + 17.9*X_7_19 + 15.7*X_8_0 + 17.4*X_8_1 + 18.5*X_8_2 + 21.8*X_8_3 + 20.0*X_8_4 + 23.4*X_8_5 + 15.3*X_8_6 + 22.3*X_8_7 + 15.0*X_8_8 + 22.5*X_8_9 + 20.2*X_8_10 + 14.8*X_8_11 + 17.7*X_8_12 + 22.6*X_8_13 + 15.8*X_8_14 + 25.9*X_8_15 + 22.9*X_8_16 + 19.6*X_8_17 + 19.4*X_8_18 + 27.4*X_8_19 + 22.2*X_9_0 + 22.6*X_9_1 + 8.4*X_9_2 + 23.1*X_9_3 + 20.8*X_9_4 + 13.2*X_9_5 + 27.9*X_9_6 + 17.4*X_9_7 + 14.3*X_9_8 + 18.5*X_9_9 + 22.5*X_9_10 + 13.4*X_9_11 + 15.1*X_9_12 + 22.3*X_9_13 + 19.7*X_9_14 + 24.6*X_9_15 + 17.7*X_9_16 + 26.6*X_9_17 + 18.6*X_9_18 + 19.0*X_9_19;

37.92 * X_0_0 + 16.9 * X_0_1 + 31.65 * X_0_2 + 37.94 * X_0_3 + 25.17 * X_0_4 + 53.4 * X_0_5 + 13.67 * X_0_6 + 22.5 * X_0_7 + 27.57 * X_0_8 + 29.04 * X_0_9 + 40.8 * X_0_10 + 35.5 * X_0_11 + 28.26 * X_0_12 + 14.1 * X_0_13 + 40.57 * X_0_14 + 27.69 * X_0_15 + 24.72 * X_0_16 + 21.81 * X_0_17 + 21.12 * X_0_18 + 42.05 * X_0_19<= 800.27;
32.22 * X_1_0 + 18.44 * X_1_1 + 23.09 * X_1_2 + 49.35 * X_1_3 + 17.0 * X_1_4 + 54.04 * X_1_5 + 23.04 * X_1_6 + 49.35 * X_1_7 + 25.7 * X_1_8 + 45.3 * X_1_9 + 26.08 * X_1_10 + 24.58 * X_1_11 + 44.88 * X_1_12 + 21.7 * X_1_13 + 27.47 * X_1_14 + 22.78 * X_1_15 + 40.42 * X_1_16 + 40.08 * X_1_17 + 34.3 * X_1_18 + 39.94 * X_1_19<= 1436.48;
26.9 * X_2_0 + 28.08 * X_2_1 + 33.03 * X_2_2 + 29.7 * X_2_3 + 54.53 * X_2_4 + 35.73 * X_2_5 + 42.84 * X_2_6 + 47.97 * X_2_7 + 51.26 * X_2_8 + 36.92 * X_2_9 + 36.74 * X_2_10 + 33.81 * X_2_11 + 29.95 * X_2_12 + 40.77 * X_2_13 + 56.33 * X_2_14 + 29.54 * X_2_15 + 42.97 * X_2_16 + 53.2 * X_2_17 + 27.05 * X_2_18 + 47.48 * X_2_19<= 926.27;
41.7 * X_3_0 + 38.21 * X_3_1 + 37.39 * X_3_2 + 19.15 * X_3_3 + 40.89 * X_3_4 + 54.88 * X_3_5 + 27.53 * X_3_6 + 26.9 * X_3_7 + 27.46 * X_3_8 + 22.0 * X_3_9 + 43.66 * X_3_10 + 32.7 * X_3_11 + 28.5 * X_3_12 + 21.7 * X_3_13 + 42.85 * X_3_14 + 31.35 * X_3_15 + 54.03 * X_3_16 + 31.2 * X_3_17 + 46.06 * X_3_18 + 40.5 * X_3_19<= 1977.34;
25.4 * X_4_0 + 25.58 * X_4_1 + 38.97 * X_4_2 + 24.9 * X_4_3 + 52.08 * X_4_4 + 16.7 * X_4_5 + 43.93 * X_4_6 + 43.04 * X_4_7 + 39.4 * X_4_8 + 23.6 * X_4_9 + 17.82 * X_4_10 + 35.24 * X_4_11 + 18.58 * X_4_12 + 46.98 * X_4_13 + 26.4 * X_4_14 + 23.81 * X_4_15 + 56.23 * X_4_16 + 33.9 * X_4_17 + 40.14 * X_4_18 + 28.69 * X_4_19<= 1279.5;
75.88 * X_5_0 + 22.8 * X_5_1 + 35.98 * X_5_2 + 42.36 * X_5_3 + 38.13 * X_5_4 + 29.35 * X_5_5 + 17.05 * X_5_6 + 20.0 * X_5_7 + 22.46 * X_5_8 + 24.94 * X_5_9 + 24.4 * X_5_10 + 34.17 * X_5_11 + 25.08 * X_5_12 + 36.41 * X_5_13 + 33.29 * X_5_14 + 49.6 * X_5_15 + 19.82 * X_5_16 + 37.28 * X_5_17 + 34.19 * X_5_18 + 28.25 * X_5_19<= 1005.16;
26.27 * X_6_0 + 40.07 * X_6_1 + 27.16 * X_6_2 + 29.52 * X_6_3 + 27.97 * X_6_4 + 17.69 * X_6_5 + 23.9 * X_6_6 + 37.66 * X_6_7 + 34.22 * X_6_8 + 35.17 * X_6_9 + 33.08 * X_6_10 + 14.9 * X_6_11 + 22.3 * X_6_12 + 29.7 * X_6_13 + 19.22 * X_6_14 + 22.57 * X_6_15 + 25.74 * X_6_16 + 17.1 * X_6_17 + 30.17 * X_6_18 + 35.67 * X_6_19<= 827.44;
28.42 * X_7_0 + 29.8 * X_7_1 + 21.9 * X_7_2 + 52.79 * X_7_3 + 54.61 * X_7_4 + 37.89 * X_7_5 + 21.74 * X_7_6 + 14.6 * X_7_7 + 44.93 * X_7_8 + 19.0 * X_7_9 + 37.2 * X_7_10 + 26.5 * X_7_11 + 21.51 * X_7_12 + 18.7 * X_7_13 + 54.72 * X_7_14 + 24.81 * X_7_15 + 44.4 * X_7_16 + 33.67 * X_7_17 + 30.26 * X_7_18 + 23.81 * X_7_19<= 1380.88;
15.7 * X_8_0 + 29.23 * X_8_1 + 21.28 * X_8_2 + 25.72 * X_8_3 + 29.4 * X_8_4 + 33.23 * X_8_5 + 27.69 * X_8_6 + 43.26 * X_8_7 + 20.7 * X_8_8 + 56.47 * X_8_9 + 47.87 * X_8_10 + 19.54 * X_8_11 + 17.7 * X_8_12 + 33.0 * X_8_13 + 19.12 * X_8_14 + 46.62 * X_8_15 + 38.24 * X_8_16 + 28.81 * X_8_17 + 30.85 * X_8_18 + 33.15 * X_8_19<= 1195.92;
32.41 * X_9_0 + 32.09 * X_9_1 + 13.27 * X_9_2 + 28.41 * X_9_3 + 25.58 * X_9_4 + 20.33 * X_9_5 + 27.9 * X_9_6 + 17.4 * X_9_7 + 14.3 * X_9_8 + 29.42 * X_9_9 + 49.95 * X_9_10 + 13.53 * X_9_11 + 31.11 * X_9_12 + 23.19 * X_9_13 + 45.51 * X_9_14 + 33.7 * X_9_15 + 29.56 * X_9_16 + 39.9 * X_9_17 + 31.43 * X_9_18 + 24.7 * X_9_19<= 664.81;
X_0_0 + X_0_1 + X_0_2 + X_0_3 + X_0_4 + X_0_5 + X_0_6 + X_0_7 + X_0_8 + X_0_9 + X_0_10 + X_0_11 + X_0_12 + X_0_13 + X_0_14 + X_0_15 + X_0_16 + X_0_17 + X_0_18 + X_0_19 <= 5;
X_1_0 + X_1_1 + X_1_2 + X_1_3 + X_1_4 + X_1_5 + X_1_6 + X_1_7 + X_1_8 + X_1_9 + X_1_10 + X_1_11 + X_1_12 + X_1_13 + X_1_14 + X_1_15 + X_1_16 + X_1_17 + X_1_18 + X_1_19 <= 5;
X_2_0 + X_2_1 + X_2_2 + X_2_3 + X_2_4 + X_2_5 + X_2_6 + X_2_7 + X_2_8 + X_2_9 + X_2_10 + X_2_11 + X_2_12 + X_2_13 + X_2_14 + X_2_15 + X_2_16 + X_2_17 + X_2_18 + X_2_19 <= 5;
X_3_0 + X_3_1 + X_3_2 + X_3_3 + X_3_4 + X_3_5 + X_3_6 + X_3_7 + X_3_8 + X_3_9 + X_3_10 + X_3_11 + X_3_12 + X_3_13 + X_3_14 + X_3_15 + X_3_16 + X_3_17 + X_3_18 + X_3_19 <= 5;
X_4_0 + X_4_1 + X_4_2 + X_4_3 + X_4_4 + X_4_5 + X_4_6 + X_4_7 + X_4_8 + X_4_9 + X_4_10 + X_4_11 + X_4_12 + X_4_13 + X_4_14 + X_4_15 + X_4_16 + X_4_17 + X_4_18 + X_4_19 <= 5;
X_5_0 + X_5_1 + X_5_2 + X_5_3 + X_5_4 + X_5_5 + X_5_6 + X_5_7 + X_5_8 + X_5_9 + X_5_10 + X_5_11 + X_5_12 + X_5_13 + X_5_14 + X_5_15 + X_5_16 + X_5_17 + X_5_18 + X_5_19 <= 5;
X_6_0 + X_6_1 + X_6_2 + X_6_3 + X_6_4 + X_6_5 + X_6_6 + X_6_7 + X_6_8 + X_6_9 + X_6_10 + X_6_11 + X_6_12 + X_6_13 + X_6_14 + X_6_15 + X_6_16 + X_6_17 + X_6_18 + X_6_19 <= 5;
X_7_0 + X_7_1 + X_7_2 + X_7_3 + X_7_4 + X_7_5 + X_7_6 + X_7_7 + X_7_8 + X_7_9 + X_7_10 + X_7_11 + X_7_12 + X_7_13 + X_7_14 + X_7_15 + X_7_16 + X_7_17 + X_7_18 + X_7_19 <= 5;
X_8_0 + X_8_1 + X_8_2 + X_8_3 + X_8_4 + X_8_5 + X_8_6 + X_8_7 + X_8_8 + X_8_9 + X_8_10 + X_8_11 + X_8_12 + X_8_13 + X_8_14 + X_8_15 + X_8_16 + X_8_17 + X_8_18 + X_8_19 <= 5;
X_9_0 + X_9_1 + X_9_2 + X_9_3 + X_9_4 + X_9_5 + X_9_6 + X_9_7 + X_9_8 + X_9_9 + X_9_10 + X_9_11 + X_9_12 + X_9_13 + X_9_14 + X_9_15 + X_9_16 + X_9_17 + X_9_18 + X_9_19 <= 5;
28.3 * X_0_0+16.9 * X_0_1+19.3 * X_0_2+18.6 * X_0_3+21.7 * X_0_4+18.1 * X_0_5+12.9 * X_0_6+22.5 * X_0_7+22.6 * X_0_8+17.6 * X_0_9+18.8 * X_0_10+18.3 * X_0_11+19.9 * X_0_12+14.1 * X_0_13+20.7 * X_0_14+17.2 * X_0_15+14.8 * X_0_16+19.3 * X_0_17+16.5 * X_0_18+21.9 * X_0_19 >= 72.2;
21.2 * X_1_0+17.9 * X_1_1+22.2 * X_1_2+23.5 * X_1_3+17.0 * X_1_4+22.9 * X_1_5+14.4 * X_1_6+29.2 * X_1_7+15.3 * X_1_8+22.1 * X_1_9+16.0 * X_1_10+19.2 * X_1_11+22.0 * X_1_12+21.7 * X_1_13+20.2 * X_1_14+21.7 * X_1_15+17.2 * X_1_16+23.3 * X_1_17+26.8 * X_1_18+19.2 * X_1_19 >= 70.92;
26.9 * X_2_0+14.4 * X_2_1+19.9 * X_2_2+15.8 * X_2_3+21.9 * X_2_4+17.6 * X_2_5+25.5 * X_2_6+23.4 * X_2_7+25.5 * X_2_8+18.1 * X_2_9+23.4 * X_2_10+28.9 * X_2_11+16.1 * X_2_12+20.8 * X_2_13+26.2 * X_2_14+10.9 * X_2_15+19.8 * X_2_16+30.4 * X_2_17+16.7 * X_2_18+24.1 * X_2_19 >= 64.11;
18.7 * X_3_0+19.2 * X_3_1+20.1 * X_3_2+12.2 * X_3_3+17.7 * X_3_4+24.5 * X_3_5+24.8 * X_3_6+23.6 * X_3_7+15.6 * X_3_8+22.0 * X_3_9+23.6 * X_3_10+21.8 * X_3_11+28.5 * X_3_12+21.7 * X_3_13+22.2 * X_3_14+20.9 * X_3_15+23.8 * X_3_16+19.5 * X_3_17+19.6 * X_3_18+30.0 * X_3_19 >= 80.6;
25.4 * X_4_0+20.8 * X_4_1+29.3 * X_4_2+24.9 * X_4_3+21.0 * X_4_4+16.7 * X_4_5+23.0 * X_4_6+21.2 * X_4_7+20.0 * X_4_8+23.6 * X_4_9+15.1 * X_4_10+16.7 * X_4_11+12.9 * X_4_12+27.8 * X_4_13+26.4 * X_4_14+18.9 * X_4_15+26.4 * X_4_16+20.3 * X_4_17+19.3 * X_4_18+16.3 * X_4_19 >= 71.47;
27.1 * X_5_0+22.8 * X_5_1+17.9 * X_5_2+22.9 * X_5_3+18.6 * X_5_4+19.7 * X_5_5+15.5 * X_5_6+20.0 * X_5_7+19.2 * X_5_8+21.5 * X_5_9+24.4 * X_5_10+17.0 * X_5_11+22.0 * X_5_12+23.8 * X_5_13+19.7 * X_5_14+19.3 * X_5_15+18.7 * X_5_16+21.8 * X_5_17+19.1 * X_5_18+21.4 * X_5_19 >= 68.66;
18.9 * X_6_0+22.9 * X_6_1+17.3 * X_6_2+24.2 * X_6_3+14.2 * X_6_4+13.5 * X_6_5+23.9 * X_6_6+21.4 * X_6_7+23.6 * X_6_8+25.3 * X_6_9+22.5 * X_6_10+14.9 * X_6_11+22.3 * X_6_12+19.8 * X_6_13+12.9 * X_6_14+10.4 * X_6_15+18.0 * X_6_16+17.1 * X_6_17+21.4 * X_6_18+14.8 * X_6_19 >= 79.29;
18.1 * X_7_0+29.8 * X_7_1+21.9 * X_7_2+24.9 * X_7_3+26.9 * X_7_4+25.6 * X_7_5+16.1 * X_7_6+14.6 * X_7_7+23.4 * X_7_8+19.0 * X_7_9+24.8 * X_7_10+21.2 * X_7_11+20.1 * X_7_12+18.7 * X_7_13+28.5 * X_7_14+15.8 * X_7_15+29.8 * X_7_16+18.3 * X_7_17+12.3 * X_7_18+17.9 * X_7_19 >= 70.7;
15.7 * X_8_0+17.4 * X_8_1+18.5 * X_8_2+21.8 * X_8_3+20.0 * X_8_4+23.4 * X_8_5+15.3 * X_8_6+22.3 * X_8_7+15.0 * X_8_8+22.5 * X_8_9+20.2 * X_8_10+14.8 * X_8_11+17.7 * X_8_12+22.6 * X_8_13+15.8 * X_8_14+25.9 * X_8_15+22.9 * X_8_16+19.6 * X_8_17+19.4 * X_8_18+27.4 * X_8_19 >= 68.17;
22.2 * X_9_0+22.6 * X_9_1+8.4 * X_9_2+23.1 * X_9_3+20.8 * X_9_4+13.2 * X_9_5+27.9 * X_9_6+17.4 * X_9_7+14.3 * X_9_8+18.5 * X_9_9+22.5 * X_9_10+13.4 * X_9_11+15.1 * X_9_12+22.3 * X_9_13+19.7 * X_9_14+24.6 * X_9_15+17.7 * X_9_16+26.6 * X_9_17+18.6 * X_9_18+19.0 * X_9_19 >= 73.82;
X_0_0 + X_1_0 + X_2_0 + X_3_0 + X_4_0 + X_5_0 + X_6_0 + X_7_0 + X_8_0 + X_9_0 <= 5;
X_0_1 + X_1_1 + X_2_1 + X_3_1 + X_4_1 + X_5_1 + X_6_1 + X_7_1 + X_8_1 + X_9_1 <= 5;
X_0_2 + X_1_2 + X_2_2 + X_3_2 + X_4_2 + X_5_2 + X_6_2 + X_7_2 + X_8_2 + X_9_2 <= 5;
X_0_3 + X_1_3 + X_2_3 + X_3_3 + X_4_3 + X_5_3 + X_6_3 + X_7_3 + X_8_3 + X_9_3 <= 5;
X_0_4 + X_1_4 + X_2_4 + X_3_4 + X_4_4 + X_5_4 + X_6_4 + X_7_4 + X_8_4 + X_9_4 <= 5;
X_0_5 + X_1_5 + X_2_5 + X_3_5 + X_4_5 + X_5_5 + X_6_5 + X_7_5 + X_8_5 + X_9_5 <= 5;
X_0_6 + X_1_6 + X_2_6 + X_3_6 + X_4_6 + X_5_6 + X_6_6 + X_7_6 + X_8_6 + X_9_6 <= 5;
X_0_7 + X_1_7 + X_2_7 + X_3_7 + X_4_7 + X_5_7 + X_6_7 + X_7_7 + X_8_7 + X_9_7 <= 5;
X_0_8 + X_1_8 + X_2_8 + X_3_8 + X_4_8 + X_5_8 + X_6_8 + X_7_8 + X_8_8 + X_9_8 <= 5;
X_0_9 + X_1_9 + X_2_9 + X_3_9 + X_4_9 + X_5_9 + X_6_9 + X_7_9 + X_8_9 + X_9_9 <= 5;
X_0_10 + X_1_10 + X_2_10 + X_3_10 + X_4_10 + X_5_10 + X_6_10 + X_7_10 + X_8_10 + X_9_10 <= 5;
X_0_11 + X_1_11 + X_2_11 + X_3_11 + X_4_11 + X_5_11 + X_6_11 + X_7_11 + X_8_11 + X_9_11 <= 5;
X_0_12 + X_1_12 + X_2_12 + X_3_12 + X_4_12 + X_5_12 + X_6_12 + X_7_12 + X_8_12 + X_9_12 <= 5;
X_0_13 + X_1_13 + X_2_13 + X_3_13 + X_4_13 + X_5_13 + X_6_13 + X_7_13 + X_8_13 + X_9_13 <= 5;
X_0_14 + X_1_14 + X_2_14 + X_3_14 + X_4_14 + X_5_14 + X_6_14 + X_7_14 + X_8_14 + X_9_14 <= 5;
X_0_15 + X_1_15 + X_2_15 + X_3_15 + X_4_15 + X_5_15 + X_6_15 + X_7_15 + X_8_15 + X_9_15 <= 5;
X_0_16 + X_1_16 + X_2_16 + X_3_16 + X_4_16 + X_5_16 + X_6_16 + X_7_16 + X_8_16 + X_9_16 <= 5;
X_0_17 + X_1_17 + X_2_17 + X_3_17 + X_4_17 + X_5_17 + X_6_17 + X_7_17 + X_8_17 + X_9_17 <= 5;
X_0_18 + X_1_18 + X_2_18 + X_3_18 + X_4_18 + X_5_18 + X_6_18 + X_7_18 + X_8_18 + X_9_18 <= 5;
X_0_19 + X_1_19 + X_2_19 + X_3_19 + X_4_19 + X_5_19 + X_6_19 + X_7_19 + X_8_19 + X_9_19 <= 5;
28.3* X_0_0 +21.2* X_1_0 +26.9* X_2_0 +18.7* X_3_0 +25.4* X_4_0 +27.1* X_5_0 +18.9* X_6_0 +18.1* X_7_0 +15.7* X_8_0 +22.2* X_9_0 <= 160;
16.9* X_0_1 +17.9* X_1_1 +14.4* X_2_1 +19.2* X_3_1 +20.8* X_4_1 +22.8* X_5_1 +22.9* X_6_1 +29.8* X_7_1 +17.4* X_8_1 +22.6* X_9_1 <= 160;
19.3* X_0_2 +22.2* X_1_2 +19.9* X_2_2 +20.1* X_3_2 +29.3* X_4_2 +17.9* X_5_2 +17.3* X_6_2 +21.9* X_7_2 +18.5* X_8_2 +8.4* X_9_2 <= 160;
18.6* X_0_3 +23.5* X_1_3 +15.8* X_2_3 +12.2* X_3_3 +24.9* X_4_3 +22.9* X_5_3 +24.2* X_6_3 +24.9* X_7_3 +21.8* X_8_3 +23.1* X_9_3 <= 160;
21.7* X_0_4 +17.0* X_1_4 +21.9* X_2_4 +17.7* X_3_4 +21.0* X_4_4 +18.6* X_5_4 +14.2* X_6_4 +26.9* X_7_4 +20.0* X_8_4 +20.8* X_9_4 <= 160;
18.1* X_0_5 +22.9* X_1_5 +17.6* X_2_5 +24.5* X_3_5 +16.7* X_4_5 +19.7* X_5_5 +13.5* X_6_5 +25.6* X_7_5 +23.4* X_8_5 +13.2* X_9_5 <= 160;
12.9* X_0_6 +14.4* X_1_6 +25.5* X_2_6 +24.8* X_3_6 +23.0* X_4_6 +15.5* X_5_6 +23.9* X_6_6 +16.1* X_7_6 +15.3* X_8_6 +27.9* X_9_6 <= 160;
22.5* X_0_7 +29.2* X_1_7 +23.4* X_2_7 +23.6* X_3_7 +21.2* X_4_7 +20.0* X_5_7 +21.4* X_6_7 +14.6* X_7_7 +22.3* X_8_7 +17.4* X_9_7 <= 160;
22.6* X_0_8 +15.3* X_1_8 +25.5* X_2_8 +15.6* X_3_8 +20.0* X_4_8 +19.2* X_5_8 +23.6* X_6_8 +23.4* X_7_8 +15.0* X_8_8 +14.3* X_9_8 <= 160;
17.6* X_0_9 +22.1* X_1_9 +18.1* X_2_9 +22.0* X_3_9 +23.6* X_4_9 +21.5* X_5_9 +25.3* X_6_9 +19.0* X_7_9 +22.5* X_8_9 +18.5* X_9_9 <= 160;
18.8* X_0_10 +16.0* X_1_10 +23.4* X_2_10 +23.6* X_3_10 +15.1* X_4_10 +24.4* X_5_10 +22.5* X_6_10 +24.8* X_7_10 +20.2* X_8_10 +22.5* X_9_10 <= 160;
18.3* X_0_11 +19.2* X_1_11 +28.9* X_2_11 +21.8* X_3_11 +16.7* X_4_11 +17.0* X_5_11 +14.9* X_6_11 +21.2* X_7_11 +14.8* X_8_11 +13.4* X_9_11 <= 160;
19.9* X_0_12 +22.0* X_1_12 +16.1* X_2_12 +28.5* X_3_12 +12.9* X_4_12 +22.0* X_5_12 +22.3* X_6_12 +20.1* X_7_12 +17.7* X_8_12 +15.1* X_9_12 <= 160;
14.1* X_0_13 +21.7* X_1_13 +20.8* X_2_13 +21.7* X_3_13 +27.8* X_4_13 +23.8* X_5_13 +19.8* X_6_13 +18.7* X_7_13 +22.6* X_8_13 +22.3* X_9_13 <= 160;
20.7* X_0_14 +20.2* X_1_14 +26.2* X_2_14 +22.2* X_3_14 +26.4* X_4_14 +19.7* X_5_14 +12.9* X_6_14 +28.5* X_7_14 +15.8* X_8_14 +19.7* X_9_14 <= 160;
17.2* X_0_15 +21.7* X_1_15 +10.9* X_2_15 +20.9* X_3_15 +18.9* X_4_15 +19.3* X_5_15 +10.4* X_6_15 +15.8* X_7_15 +25.9* X_8_15 +24.6* X_9_15 <= 160;
14.8* X_0_16 +17.2* X_1_16 +19.8* X_2_16 +23.8* X_3_16 +26.4* X_4_16 +18.7* X_5_16 +18.0* X_6_16 +29.8* X_7_16 +22.9* X_8_16 +17.7* X_9_16 <= 160;
19.3* X_0_17 +23.3* X_1_17 +30.4* X_2_17 +19.5* X_3_17 +20.3* X_4_17 +21.8* X_5_17 +17.1* X_6_17 +18.3* X_7_17 +19.6* X_8_17 +26.6* X_9_17 <= 160;
16.5* X_0_18 +26.8* X_1_18 +16.7* X_2_18 +19.6* X_3_18 +19.3* X_4_18 +19.1* X_5_18 +21.4* X_6_18 +12.3* X_7_18 +19.4* X_8_18 +18.6* X_9_18 <= 160;
21.9* X_0_19 +19.2* X_1_19 +24.1* X_2_19 +30.0* X_3_19 +16.3* X_4_19 +21.4* X_5_19 +14.8* X_6_19 +17.9* X_7_19 +27.4* X_8_19 +19.0* X_9_19 <= 160;
bin X_0_0,X_0_1,X_0_2,X_0_3,X_0_4,X_0_5,X_0_6,X_0_7,X_0_8,X_0_9,X_0_10,X_0_11,X_0_12,X_0_13,X_0_14,X_0_15,X_0_16,X_0_17,X_0_18,X_0_19,X_1_0,X_1_1,X_1_2,X_1_3,X_1_4,X_1_5,X_1_6,X_1_7,X_1_8,X_1_9,X_1_10,X_1_11,X_1_12,X_1_13,X_1_14,X_1_15,X_1_16,X_1_17,X_1_18,X_1_19,X_2_0,X_2_1,X_2_2,X_2_3,X_2_4,X_2_5,X_2_6,X_2_7,X_2_8,X_2_9,X_2_10,X_2_11,X_2_12,X_2_13,X_2_14,X_2_15,X_2_16,X_2_17,X_2_18,X_2_19,X_3_0,X_3_1,X_3_2,X_3_3,X_3_4,X_3_5,X_3_6,X_3_7,X_3_8,X_3_9,X_3_10,X_3_11,X_3_12,X_3_13,X_3_14,X_3_15,X_3_16,X_3_17,X_3_18,X_3_19,X_4_0,X_4_1,X_4_2,X_4_3,X_4_4,X_4_5,X_4_6,X_4_7,X_4_8,X_4_9,X_4_10,X_4_11,X_4_12,X_4_13,X_4_14,X_4_15,X_4_16,X_4_17,X_4_18,X_4_19,X_5_0,X_5_1,X_5_2,X_5_3,X_5_4,X_5_5,X_5_6,X_5_7,X_5_8,X_5_9,X_5_10,X_5_11,X_5_12,X_5_13,X_5_14,X_5_15,X_5_16,X_5_17,X_5_18,X_5_19,X_6_0,X_6_1,X_6_2,X_6_3,X_6_4,X_6_5,X_6_6,X_6_7,X_6_8,X_6_9,X_6_10,X_6_11,X_6_12,X_6_13,X_6_14,X_6_15,X_6_16,X_6_17,X_6_18,X_6_19,X_7_0,X_7_1,X_7_2,X_7_3,X_7_4,X_7_5,X_7_6,X_7_7,X_7_8,X_7_9,X_7_10,X_7_11,X_7_12,X_7_13,X_7_14,X_7_15,X_7_16,X_7_17,X_7_18,X_7_19,X_8_0,X_8_1,X_8_2,X_8_3,X_8_4,X_8_5,X_8_6,X_8_7,X_8_8,X_8_9,X_8_10,X_8_11,X_8_12,X_8_13,X_8_14,X_8_15,X_8_16,X_8_17,X_8_18,X_8_19,X_9_0,X_9_1,X_9_2,X_9_3,X_9_4,X_9_5,X_9_6,X_9_7,X_9_8,X_9_9,X_9_10,X_9_11,X_9_12,X_9_13,X_9_14,X_9_15,X_9_16,X_9_17,X_9_18,X_9_19;
